SAT
-1 -125 -124 -123 -122 -121 120 110 -76 -35 29 -24 -114 17 100 -96 12 119 -16 -108 116 -56 -63 7 64 83 -57 -40 -60 -82 34 -80 78 -2 47 86 14 61 -115 81 58 -52 -48 -103 8 -11 65 93 -85 95 -77 -94 -99 54 -74 -43 -27 10 -88 46 -111 98 -3 -19 -104 -38 -39 -102 55 20 118 51 -31 42 92 -33 105 -70 -41 15 32 -73 -37 5 -28 -36 53 66 -90 30 -26 6 -18 101 97 -50 -112 13 106 72 -89 -59 -107 25 -75 21 -4 -109 -117 44 -45 87 -84 62 9 22 71 69 -79 68 -113 91 -49 67 -23 0
